8318
8308
8223
8295
8260
8331
8173
8250
8261
8220
8321
8143
8013
8348
8294
8134
8237
8256
8086
8218
8232
8105
8220
8102
8185
8462
8301
8234
8206
8236
8134
8051
8114
8033
8216
8255
8182
8300
8263
8342
8186
8213
8203
8203
8259
8098
8132
8164
8246
8236
8224
8199
8271
8147
8321
8314
8252
8183
8253
8246
8102
8273
8286
8331
8239
8324
8271
8371
8268
8048
8441
8269
8210
8290
8276
8254
8182
8144
8214
8171
8228
8322
8210
8267
8301
8389
8330
8130
8218
8258
8186
8151
8252
8098
8247
8229
8187
8262
8234
8260
